33D32945 STP File, STP Format Version 1.0

SECTION Comments
Name "edge_n10_d4_s33"
Problem "Euclidean Steiner Tree Problem"
Remark "Generated with STPGenerator. 4 dimensions."
END

SECTION Graph
Nodes 10
END

SECTION Coordinates
DDDD 0 0.3079489355 0.3079489355 0.3079489355 0.3079489355
DDDD 1 0.6126976412 0.6126976412 0.6126976412 0.6126976412
DDDD 2 0.4672263043 0.4672263043 0.4672263043 0.4672263043
DDDD 3 0.5413947988 0.5413947988 0.5413947988 0.5413947988
DDDD 4 0.3004468834 0.3004468834 0.3004468834 0.3004468834
DDDD 5 0.2632564820 0.2632564820 0.2632564820 0.2632564820
DDDD 6 0.8872430967 0.8872430967 0.8872430967 0.8872430967
DDDD 7 0.7088636578 0.7088636578 0.7088636578 0.7088636578
DDDD 8 0.0528921765 0.0528921765 0.0528921765 0.0528921765
DDDD 9 0.2627286242 0.2627286242 0.2627286242 0.2627286242
END
